Results/Experiment 1 Results/Existing Benchmark/RES_20/i-20-100-4.txt
solutions: 1 nodes: 3  modelTime: 125  solveTime: 13  totalTime: 141  modelSize: 7358  readTime: 3 matchingSize: 10
