Results/Experiment 2 Results/Existing Benchmark/i-20-100-4.lp
clingo version 5.4.0
Reading from tempSRTISolver.lp ...
Solving...
Answer: 1
matched(15,2) matched(17,3) matched(5,4) matched(4,5) matched(10,6) matched(16,7) matched(20,8) matched(14,9) matched(6,10) matched(19,11) matched(13,12) matched(12,13) matched(9,14) matched(2,15) matched(7,16) matched(3,17) matched(1,18) matched(11,19) matched(8,20) matched(18,1)
Optimization: 88
OPTIMUM FOUND

Models       : 1
  Optimum    : yes
Optimization : 88
Calls        : 1
Time         : 0.056s (Solving: 0.00s 1st Model: 0.00s Unsat: 0.00s)
CPU Time     : 0.055s
